2
4
40
1 1.3 1.55 1.75 2.1
19 17 25 22 21 45 42 25 43 13 5 27 6 34 18 16 42 10 40 21 44 19 46 45 17 14 16 5 32 31 35 19 15 13 10 43 46 34 42 20 36 15 13 27 16 35 39 38 21 32 40 43 6 28 40 18 22 31 41 40 28 48 41 33 28 40 33 13 5 44 37 21 8 35 23 8 29 47 25 17 31 30 41 30 16 40 46 45 37 8 44 9 28 25 23 27 39 10 38 6 29 30 18 8 47 40 18 30 31 28 42 18 46 22 49 43 18 19 33 13 22 26 19 11 46 23 43 12 7 32 19 38 19 36 29 34 30 6 9 48 6 11 7 24 6 8 16 19 27 20 27 35 38 8 16 45 49 41 33 8 